scenesLength = [2,4,1,3,3,2,5,7,6];
actorsCosts = [1,1,1,1,1];
actorsToScenes = 
[{1,2,4,6,7,9}, {1,2,4,5,6,8}, {1,2,7,8}, {1,5,6,9}, {3,5,6,7,8}];



















%actorsToScenes =  [{0,1,3,5,6,8}, {0,1,3,4,5,7}, {0,1,6,7}, {0,4,5,8}, {2,4,5,6,7}];